
******************************************************************************
This program contains Ipopt, a library for large-scale nonlinear optimization.
 Ipopt is released as open source code under the Eclipse Public License (EPL).
         For more information visit http://projects.coin-or.org/Ipopt

This version of Ipopt was compiled from source code available at
    https://github.com/IDAES/Ipopt as part of the Institute for the Design of
    Advanced Energy Systems Process Systems Engineering Framework (IDAES PSE
    Framework) Copyright (c) 2018-2019. See https://github.com/IDAES/idaes-pse.

This version of Ipopt was compiled using HSL, a collection of Fortran codes
    for large-scale scientific computation.  All technical papers, sales and
    publicity material resulting from use of the HSL codes within IPOPT must
    contain the following acknowledgement:
        HSL, a collection of Fortran codes for large-scale scientific
        computation. See http://www.hsl.rl.ac.uk.
******************************************************************************

This is Ipopt version 3.13.2, running with linear solver ma27.

Number of nonzeros in equality constraint Jacobian...:      958
Number of nonzeros in inequality constraint Jacobian.:        0
Number of nonzeros in Lagrangian Hessian.............:      832

Total number of variables............................:      416
                     variables with only lower bounds:      128
                variables with lower and upper bounds:      224
                     variables with only upper bounds:        0
Total number of equality constraints.................:      415
Total number of inequality constraints...............:        0
        inequality constraints with only lower bounds:        0
   inequality constraints with lower and upper bounds:        0
        inequality constraints with only upper bounds:        0

iter    objective    inf_pr   inf_du lg(mu)  ||d||  lg(rg) alpha_du alpha_pr  ls
   0  0.0000000e+00 2.83e-01 8.88e-16  -1.0 0.00e+00    -  0.00e+00 0.00e+00   0
   1  5.1701608e-01 1.57e+00 3.56e+04  -1.0 1.18e+05    -  5.21e-01 4.60e-01h  1
   2  5.9493025e-01 1.46e+00 3.34e+04  -1.0 5.28e+04    -  8.71e-01 6.06e-02h  1
   3  1.0120083e+00 1.12e+00 2.58e+04  -1.0 1.10e+05    -  6.46e-01 2.27e-01h  1
   4  6.0610235e+00 4.40e-01 1.32e+04  -1.0 1.16e+05    -  2.99e-03 9.90e-01h  1
   5  6.6469653e+00 1.33e-01 2.33e+03  -1.0 1.07e+04    -  7.94e-01 9.90e-01h  1
   6  6.7137717e+00 2.47e-02 2.22e+05  -1.0 1.48e+03    -  1.22e-01 9.90e-01h  1
   7  6.7537490e+00 1.67e-03 1.65e+06  -1.0 8.93e+02    -  9.25e-01 9.90e-01h  1
   8  6.7818753e+00 4.33e-05 1.03e+06  -1.0 6.26e+02    -  9.90e-01 9.90e-01h  1
   9  6.6563110e+00 3.52e-06 5.79e+09  -1.7 3.18e+03    -  9.90e-01 8.76e-01H  1
iter    objective    inf_pr   inf_du lg(mu)  ||d||  lg(rg) alpha_du alpha_pr  ls
  10  6.6792743e+00 8.91e-07 1.85e+08  -1.7 5.17e+02    -  9.90e-01 9.90e-01h  1
  11  6.6775078e+00 1.30e-08 4.12e+11  -1.7 3.97e+01    -  1.00e+00 9.90e-01h  1
In iteration 11, 32 Slacks too small, adjusting variable bounds
  12  6.6774848e+00 1.30e-10 4.12e+13  -1.7 5.18e-01    -  1.00e+00 9.90e-01h  1
  13  6.6774846e+00 1.98e-11 1.88e-01  -1.7 5.18e-03    -  1.00e+00 1.00e+00h  1
  14  6.6773092e+00 4.76e-11 4.18e+13  -9.0 5.57e+02    -  9.99e-01 7.01e-03f  8
  15  6.6771351e+00 9.50e-11 4.15e+13  -9.0 4.98e+02    -  1.00e+00 7.78e-03f  8
  16  6.6770488e+00 1.07e-10 4.13e+13  -9.0 4.92e+02    -  1.00e+00 3.91e-03f  9
  17  6.6550699e+00 4.66e-10 3.30e+08  -9.0 4.90e+02    -  1.00e+00 1.00e+00F  1
  18  6.6550699e+00 3.37e-11 9.52e-08  -9.0 2.10e-05    -  1.00e+00 1.00e+00h  1

Number of Iterations....: 18

                                   (scaled)                 (unscaled)
Objective...............:   6.6550698528223906e+00    6.6550698528223906e+00
Dual infeasibility......:   9.5227733254432678e-08    9.5227733254432678e-08
Constraint violation....:   3.3714364633397054e-11    3.3714364633397054e-11
Complementarity.........:   9.0911227933743546e-10    9.0911227933743546e-10
Overall NLP error.......:   7.7827493806083718e-11    9.5227733254432678e-08


Number of objective function evaluations             = 55
Number of objective gradient evaluations             = 19
Number of equality constraint evaluations            = 55
Number of inequality constraint evaluations          = 0
Number of equality constraint Jacobian evaluations   = 19
Number of inequality constraint Jacobian evaluations = 0
Number of Lagrangian Hessian evaluations             = 18
Total CPU secs in IPOPT (w/o function evaluations)   =      0.041
Total CPU secs in NLP function evaluations           =      0.578

EXIT: Optimal Solution Found.
